
  12    4
  10   10   10   10

   0   0   0   0   0   2 2 4 
   4  10  10  10  10   2 6 3 
   1  10  10  10  10   2 10 7 
   3  10  10  10  10   1 5 
   3  10  10  10  10   2 10 8 
   6  10  10  10  10   2 10 9 
   9  10  10  10  10   1 8 
   9  10  10  10  10   1 9 
   6  10  10  10  10   1 11 
   2  10  10  10  10   1 11 
   2  10  10  10  10   1 12
   0   0   0   0   0   0 
